
Gurobi 7.5.2 (linux64) logging started Sat Jul  7 16:00:03 2018

Changed value of parameter LogFile to result/ilp/simNo_2-n_100-m_40-s_4-minVAF_0.05-cov_10000-k_2-fn_0.05-fp_0.0001-na_0.15.ILP.gurobiSolverLog
   Prev: gurobi.log  Default: 
Changed value of parameter TimeLimit to 86400.0
   Prev: 1e+100  Min: 0.0  Max: 1e+100  Default: 1e+100
Optimize a model with 639293 rows, 10765 columns and 1940420 nonzeros
Variable types: 0 continuous, 10765 integer (10765 binary)
Coefficient statistics:
  Matrix range     [2e-04, 4e+00]
  Objective range  [6e-02, 9e+00]
  Bounds range     [1e+00, 1e+00]
  RHS range        [2e-01, 2e+00]
Found heuristic solution: objective -21249.01629
Presolve removed 120831 rows and 942 columns (presolve time = 6s) ...
Presolve removed 121328 rows and 942 columns (presolve time = 13s) ...
Presolve removed 171028 rows and 1439 columns (presolve time = 15s) ...
Presolve removed 171028 rows and 1439 columns
Presolve time: 18.43s
Presolved: 468265 rows, 9326 columns, 1410152 nonzeros
Variable types: 0 continuous, 9326 integer (9326 binary)
Presolved: 9326 rows, 477591 columns, 1419478 nonzeros

Presolve removed 9326 rows and 477591 columns

Root simplex log...

Iteration    Objective       Primal Inf.    Dual Inf.      Time
       0    8.0624276e+00   0.000000e+00   1.053460e+05     22s
   18767   -2.0639429e+02   0.000000e+00   1.435187e+05     25s
   33226   -2.5600391e+02   0.000000e+00   7.997068e+03     31s
   35123   -2.5577309e+02   0.000000e+00   0.000000e+00     34s
   35123   -2.5577309e+02   0.000000e+00   0.000000e+00     35s

Root relaxation: objective -2.557731e+02, 35123 iterations, 14.80 seconds
Total elapsed time = 38.52s
Total elapsed time = 109.59s
Total elapsed time = 201.45s
Total elapsed time = 257.85s

    Nodes    |    Current Node    |     Objective Bounds      |     Work
 Expl Unexpl |  Obj  Depth IntInf | Incumbent    BestBd   Gap | It/Node Time

     0     0 -255.77309    0 1863 -21249.016 -255.77309  98.8%     -  274s
H    0     0                    -318.0269583 -255.77309  19.6%     -  278s
H    0     0                    -303.0899283 -255.77309  15.6%     -  280s
     0     0 -260.37789    0 1843 -303.08993 -260.37789  14.1%     -  413s
H    0     0                    -289.2663715 -260.37789  10.0%     -  425s
     0     0 -262.01960    0 1846 -289.26637 -262.01960  9.42%     -  570s
     0     0 -262.01960    0 1845 -289.26637 -262.01960  9.42%     -  573s
     0     0 -265.77907    0 1878 -289.26637 -265.77907  8.12%     - 6024s
H    0     0                    -282.9567314 -265.77907  6.07%     - 6032s
     0     0 -265.82773    0 2193 -282.95673 -265.82773  6.05%     - 6080s
     0     0 -265.82773    0 2189 -282.95673 -265.82773  6.05%     - 6086s
     0     0 -268.60009    0 2202 -282.95673 -268.60009  5.07%     - 8821s
H    0     0                    -276.7537660 -268.60009  2.95%     - 8826s
     0     0 -268.60009    0 2201 -276.75377 -268.60009  2.95%     - 8829s
     0     0 -269.32085    0 2025 -276.75377 -269.32085  2.69%     - 10450s
     0     0 -269.32085    0  621 -276.75377 -269.32085  2.69%     - 10552s
     0     0 -271.09660    0  555 -276.75377 -271.09660  2.04%     - 10558s
     0     0 -271.75183    0  651 -276.75377 -271.75183  1.81%     - 10560s
     0     0 -271.75183    0  651 -276.75377 -271.75183  1.81%     - 10560s
     0     0 -273.79816    0  320 -276.75377 -273.79816  1.07%     - 10592s
     0     0 -273.79816    0  587 -276.75377 -273.79816  1.07%     - 10609s
     0     0 -273.79816    0  539 -276.75377 -273.79816  1.07%     - 10612s
     0     0 -273.87024    0  323 -276.75377 -273.87024  1.04%     - 10613s
     0     0 -274.59099    0  332 -276.75377 -274.59099  0.78%     - 10614s
     0     0 -274.59099    0  313 -276.75377 -274.59099  0.78%     - 10615s
     0     0 -274.72960    0  401 -276.75377 -274.72960  0.73%     - 10616s
     0     0 -274.72960    0  401 -276.75377 -274.72960  0.73%     - 10616s
     0     0 -274.74525    0  627 -276.75377 -274.74525  0.73%     - 10617s
     0     0 -274.74525    0  627 -276.75377 -274.74525  0.73%     - 10617s
     0     0 -274.91290    0  601 -276.75377 -274.91290  0.67%     - 10628s
H    0     0                    -276.7532459 -274.91290  0.66%     - 10629s
     0     0 -275.31174    0  325 -276.75325 -275.31174  0.52%     - 10629s
     0     0 -275.31174    0  330 -276.75325 -275.31174  0.52%     - 10630s
     0     0 -275.31174    0  330 -276.75325 -275.31174  0.52%     - 10630s
     0     0 -275.31174    0  386 -276.75325 -275.31174  0.52%     - 10631s
     0     0 -275.31174    0  386 -276.75325 -275.31174  0.52%     - 10631s
     0     0 -275.31174    0  246 -276.75325 -275.31174  0.52%     - 10646s
     0     0 -275.31174    0  316 -276.75325 -275.31174  0.52%     - 10647s
     0     0 -275.31174    0  267 -276.75325 -275.31174  0.52%     - 10664s
     0     0 -275.31174    0  376 -276.75325 -275.31174  0.52%     - 10665s
     0     0 -275.31174    0  305 -276.75325 -275.31174  0.52%     - 10682s
     0     0 -275.31174    0  305 -276.75325 -275.31174  0.52%     - 10713s
     0     0 -275.31174    0  366 -276.75325 -275.31174  0.52%     - 10735s
     0     0 -275.31174    0  385 -276.75325 -275.31174  0.52%     - 10737s
     0     0 -275.31174    0  373 -276.75325 -275.31174  0.52%     - 10737s
     0     0     cutoff    0      -276.75325 -276.75325  0.00%     - 10738s

Cutting planes:
  Gomory: 5
  Zero half: 28

Explored 1 nodes (502435 simplex iterations) in 10738.78 seconds
Thread count was 1 (of 80 available processors)

Solution count 10: -276.753 -276.753 -276.754 ... -21249

Optimal solution found (tolerance 1.00e-04)
Best objective -2.767532459391e+02, best bound -2.767532459391e+02, gap 0.0000%
